% Número total de personas
n = 100;

% Número de opiniones posibles
m = 5;

% Distribución inicial de personas por opinión
p = [50, 0, 0, 0, 50];

% Valores de las opiniones
v = [0.000, 0.250, 0.500, 0.750, 1.000];

% Costos extras al mover a opiniones vacías
ce = [3.013, 16.871, 3.719, 6.309, 12.793];

% Matriz de costos de mover de una opinión a otra
C = array2d(1..5, 1..5,
  [
    0.000,    1.063,    0.853,    0.467,    2.461,
    0.299,    0.000,    0.016,    5.394,    5.413,
    0.131,    4.138,    0.000,    2.132,    1.659,
    0.281,    0.558,    5.024,    0.000,    3.722,
    3.411,    5.215,    5.353,    4.312,    0.000
  ]);

% Costo total máximo permitido
C_max = 1000.000;

% Número máximo de movimientos permitidos
M_max = 1000;
